Version identifier: 22.1.1.0 | 2022-11-28 | 9160aff4d
CPXPARAM_ClockType                               1
CPXPARAM_Read_DataCheck                          1
CPXPARAM_Threads                                 1
CPXPARAM_TimeLimit                               7200
CPXPARAM_MIP_Tolerances_AbsMIPGap                0
CPXPARAM_MIP_Tolerances_MIPGap                   0
CPXPARAM_MIP_Tolerances_Integrality              0
Tried aggregator 2 times.
MIP Presolve eliminated 6652 rows and 28 columns.
MIP Presolve modified 603 coefficients.
Aggregator did 267 substitutions.
Reduced MIP has 4935 rows, 3401 columns, and 22766 nonzeros.
Reduced MIP has 3401 binaries, 0 generals, 0 SOSs, and 0 indicators.
Presolve time = 0.05 sec. (28.08 ticks)
Found incumbent of value 332.000000 after 0.13 sec. (84.86 ticks)
Probing time = 0.01 sec. (3.03 ticks)
Tried aggregator 1 time.
Detecting symmetries...
Reduced MIP has 4935 rows, 3401 columns, and 22766 nonzeros.
Reduced MIP has 3401 binaries, 0 generals, 0 SOSs, and 0 indicators.
Presolve time = 0.02 sec. (14.41 ticks)
Probing time = 0.00 sec. (3.03 ticks)
Clique table members: 1275.
MIP emphasis: balance optimality and feasibility.
MIP search method: dynamic search.
Parallel mode: none, using 1 thread.
Root relaxation solution time = 0.44 sec. (284.48 ticks)

        Nodes                                         Cuts/
   Node  Left     Objective  IInf  Best Integer    Best Bound    ItCnt     Gap

*     0+    0                          332.0000     1584.0000           377.11%
      0     0      896.0000   452      332.0000      896.0000     3324  169.88%
*     0+    0                          896.0000      896.0000             0.00%
      0     0        cutoff            896.0000      896.0000     3324    0.00%
Elapsed time = 0.96 sec. (604.34 ticks, tree = 0.01 MB, solutions = 2)

Root node processing (before b&c):
  Real time             =    0.96 sec. (604.50 ticks)
Sequential b&c:
  Real time             =    0.00 sec. (0.00 ticks)
                          ------------
Total (root+branch&cut) =    0.96 sec. (604.50 ticks)
Solution is feasible.

---------------------
@@@ MIP_optimal
>>> Benchmark mc2024_track1_006.cnf k 5 OPT 896 TimeCost 1.9383373260498047 TimeSolve 0.9833884239196777 TimeRead 0.0744333267211914 TimeTrans 0.8805155754089355
